15
Central water is QM; four whole neighboring waters are MM
O   0.000000   0.000000   0.000000
H   0.758602   0.000000   0.504284
H  -0.758602   0.000000   0.504284
O   2.750000   0.000000   0.000000
H   1.991398   0.000000   0.504284
H   3.508602   0.000000   0.504284
O  -2.750000   0.000000   0.000000
H  -3.508602   0.000000   0.504284
H  -1.991398   0.000000   0.504284
O   0.000000   2.750000   0.000000
H   0.000000   1.991398   0.504284
H   0.000000   3.508602   0.504284
O   0.000000  -2.750000   0.000000
H   0.000000  -3.508602   0.504284
H   0.000000  -1.991398   0.504284
