restart test_mol
memory total 2000 mb

geometry units angstrom
  O  0.000000  0.000000  0.117370
  H  0.000000  0.756950 -0.469483
  H  0.000000 -0.756950 -0.469483
end

basis
  * library 6-31g*
end

dft
  xc b3lyp
  iterations 200
end

task dft freq
