echo  
start tddftgrad_co_exden  
geometry  
 C     0.00000000     0.00000000    -0.64628342  
 O     0.00000000     0.00000000     0.48264375  
 symmetry c1  
end  
basis spherical  
 * library "3-21G"  
end  
dft  
 xc pbe0  
 direct  
end  
tddft  
 nroots 3  
 notriplet  
 target 1  
 civecs  
 grad  
  root 1  
 end  
end  
task tddft gradient  
dplot  
 densmat tddftgrad_co_exden.dmat  
 LimitXYZ  
-4.0 4.0 50  
-4.0 4.0 50  
-4.0 4.0 50  
 gaussian  
 output co_exden.cube  
end  
task dplot
